SimulationType                MonteCarlo
NumberOfCycles                400000
NumberOfInitializationCycles  200000
PrintEvery                    1000
RestartFile                   no

Ensemble NVT

Forcefield                    ExampleMOFsForceField
CutOff                           12.0

ChargeFromChargeEquilibration    yes
ChargeEquilibrationPeriodic      yes
ChargeEquilibrationEwald         yes
SymmetrizeFrameworkCharges       no

Framework 0
FrameworkName JETVOW_crystal17
UnitCells 1 1 1
ExternalTemperature 298.0
ExternalPressure 0
Movies yes
WriteMoviesEvery 1000

ComputeNumberOfMoleculesHistogram yes
WriteNumberOfMoleculesHistogramEvery 1000

ComputeEnergyHistogram yes
WriteEnergyHistogramEvery 5000
EnergyHistogramSize 400
EnergyHistogramLowerLimit -110000
EnergyHistogramUpperLimit -20000

Component 0 MoleculeName             H2S
            MoleculeDefinition       ExampleDefinitions
            TranslationProbability   0.5
            RotationProbability      0.5
            ReinsertionProbability   0.5
            SwapProbability          0
            CreateNumberOfMolecules  X

